
  32    1
  10

   0   0   3 2 3 5 
   8   1   2 13 4 
   1   5   3 13 7 6 
   8   5   2 7 6 
   3   5   4 13 11 10 9 
   6   5   3 11 10 8 
   3   4   3 11 9 8 
  10   4   5 23 20 18 15 14 
   9   3   5 23 20 18 15 14 
  10   2   3 19 16 12 
   1   4   4 18 17 16 15 
   9   3   3 23 18 15 
   2   5   3 19 18 16 
  10   5   2 22 17 
  10  10   4 25 24 22 21 
   7   4   4 25 24 22 21 
   8   6   3 24 21 19 
   6   3   3 27 25 21 
   6   7   2 27 25 
   4   4   3 31 27 26 
  10   4   3 31 28 26 
   7   3   3 31 30 27 
   1   4   3 31 30 27 
   3   4   3 31 30 28 
   8   4   2 31 26 
   4   5   2 30 29 
   7   1   1 28 
   2   2   1 29 
  10   3   1 32
   2   3   1 32
   5   2   1 32
   0   0   0 
